424 5
10 10 10 10 10 

0 0 0 0 0 0 5 2 14 26 38 50 
0 0 0 0 0 0 5 3 4 6 7 12 
10 0 0 0 1 0 5 11 10 9 5 193 
9 0 0 0 2 0 2 9 5 
8 0 0 0 4 0 1 8 
8 0 0 0 4 0 1 9 
2 0 0 0 1 0 1 8 
1 0 0 0 3 0 1 13 
5 0 0 0 2 0 1 13 
4 0 0 0 3 0 1 13 
8 0 0 0 3 0 1 13 
5 0 0 0 2 0 1 13 
0 0 0 0 0 0 1 62 
0 0 0 0 0 0 5 15 16 17 18 19 
8 0 0 0 0 1 4 24 23 22 20 
3 0 0 0 0 4 3 24 23 20 
7 0 0 0 0 3 3 24 22 20 
4 0 0 0 0 1 3 23 22 21 
4 0 0 0 0 2 2 22 20 
4 0 0 0 0 3 1 21 
2 0 0 0 0 3 1 25 
7 0 0 0 0 5 1 25 
2 0 0 0 0 2 2 25 56 
3 0 0 0 0 1 1 25 
0 0 0 0 0 0 1 62 
0 0 0 0 0 0 6 27 28 33 34 35 36 
3 0 0 1 0 0 2 30 29 
3 0 0 2 0 0 2 32 30 
6 0 0 2 0 0 1 31 
10 0 0 5 0 0 1 37 
5 0 0 2 0 0 1 37 
4 0 0 2 0 0 1 37 
6 0 0 1 0 0 2 37 311 
2 0 0 2 0 0 1 37 
1 0 0 5 0 0 1 37 
7 0 0 3 0 0 1 37 
0 0 0 0 0 0 1 62 
0 0 0 0 0 0 4 39 40 43 416 
10 0 0 0 0 1 3 44 42 41 
3 0 0 0 0 4 2 44 41 
6 0 0 0 0 4 4 48 47 46 45 
5 0 0 0 0 1 4 48 47 46 45 
2 0 0 0 0 5 4 48 47 46 45 
5 0 0 0 0 1 3 47 46 45 
10 0 0 0 0 3 1 49 
9 0 0 0 0 3 1 49 
5 0 0 0 0 1 1 49 
10 0 0 0 0 2 1 49 
0 0 0 0 0 0 1 62 
0 0 0 0 0 0 6 51 52 57 58 59 60 
9 0 1 0 0 0 2 56 54 
6 0 4 0 0 0 1 53 
6 0 2 0 0 0 1 55 
2 0 2 0 0 0 2 55 372 
6 0 3 0 0 0 1 61 
10 0 2 0 0 0 1 61 
5 0 5 0 0 0 1 61 
5 0 1 0 0 0 1 61 
2 0 2 0 0 0 1 61 
5 0 3 0 0 0 1 61 
0 0 0 0 0 0 1 62 
0 0 0 0 0 0 5 63 75 87 99 111 
0 0 0 0 0 0 4 64 65 72 73 
4 0 1 0 0 0 3 71 70 66 
8 0 4 0 0 0 1 66 
3 0 3 0 0 0 3 69 68 67 
7 0 2 0 0 0 1 74 
10 0 3 0 0 0 1 74 
10 0 3 0 0 0 1 74 
3 0 1 0 0 0 1 74 
9 0 3 0 0 0 1 74 
5 0 2 0 0 0 2 74 113 
2 0 3 0 0 0 1 74 
0 0 0 0 0 0 1 123 
0 0 0 0 0 0 4 76 77 79 80 
9 0 1 0 0 0 4 85 84 83 78 
8 0 2 0 0 0 3 84 82 81 
5 0 2 0 0 0 2 82 81 
8 0 3 0 0 0 2 83 81 
7 0 2 0 0 0 1 81 
3 0 3 0 0 0 1 86 
2 0 2 0 0 0 1 86 
1 0 3 0 0 0 2 86 288 
10 0 2 0 0 0 1 86 
9 0 5 0 0 0 1 86 
0 0 0 0 0 0 1 123 
0 0 0 0 0 0 5 88 89 91 92 93 
4 0 0 0 0 1 3 97 96 90 
5 0 0 0 0 5 2 97 94 
5 0 0 0 0 1 1 94 
7 0 0 0 0 3 1 96 
5 0 0 0 0 2 1 95 
10 0 0 0 0 2 2 95 373 
8 0 0 0 0 4 1 98 
10 0 0 0 0 3 1 98 
5 0 0 0 0 2 1 98 
3 0 0 0 0 2 1 98 
0 0 0 0 0 0 1 123 
0 0 0 0 0 0 4 100 101 102 104 
4 0 0 0 0 1 5 109 108 107 106 103 
3 0 0 0 0 2 4 108 107 103 165 
7 0 0 0 0 6 2 106 105 
3 0 0 0 0 1 1 105 
2 0 0 0 0 2 1 106 
4 0 0 0 0 2 1 110 
8 0 0 0 0 3 1 110 
1 0 0 0 0 1 1 110 
4 0 0 0 0 2 1 110 
7 0 0 0 0 5 1 110 
0 0 0 0 0 0 1 123 
0 0 0 0 0 0 6 112 113 114 115 116 117 
2 0 0 1 0 0 2 121 118 
1 0 0 3 0 0 2 121 118 
2 0 0 3 0 0 2 119 118 
7 0 0 3 0 0 2 121 120 
10 0 0 5 0 0 2 119 126 
9 0 0 2 0 0 1 118 
6 0 0 2 0 0 1 120 
10 0 0 2 0 0 1 120 
3 0 0 3 0 0 1 122 
2 0 0 1 0 0 1 122 
0 0 0 0 0 0 1 123 
0 0 0 0 0 0 5 124 156 188 220 252 
0 0 0 0 0 0 6 125 126 127 128 129 132 
4 1 1 0 0 1 5 142 140 133 131 130 
8 1 1 0 0 2 4 140 139 133 130 
5 2 1 0 0 1 3 142 133 130 
10 3 1 0 0 1 3 142 131 130 
5 3 2 0 0 1 2 142 131 
4 1 4 0 0 2 5 143 138 137 136 135 
6 4 3 0 0 2 6 144 143 139 138 137 422 
2 4 2 0 0 4 3 144 143 137 
5 3 3 0 0 1 1 134 
9 3 4 0 0 2 3 144 143 141 
3 1 3 0 0 4 2 144 141 
8 1 2 0 0 2 2 144 141 
8 1 3 0 0 6 1 141 
8 1 2 0 0 1 1 141 
8 2 3 0 0 2 1 141 
10 2 1 0 0 3 1 141 
10 1 2 0 0 3 5 154 153 150 146 145 
5 3 2 0 0 1 2 150 144 
10 2 4 0 0 3 2 153 145 
9 5 2 0 0 2 4 154 153 152 149 
5 3 5 0 0 3 2 152 148 
3 2 3 0 0 5 1 147 
8 5 3 0 0 4 2 152 151 
1 4 1 0 0 2 1 149 
7 3 2 0 0 3 1 151 
1 1 3 0 0 2 1 152 
4 3 3 0 0 4 1 155 
8 4 1 0 0 3 1 155 
2 5 4 0 0 1 1 155 
8 1 4 0 0 4 1 155 
0 0 0 0 0 0 1 424 
0 0 0 0 0 0 6 157 158 159 160 161 172 
5 1 1 0 0 1 4 173 164 163 162 
10 2 2 0 0 2 5 173 170 168 163 162 
4 1 5 0 0 2 3 168 163 162 
7 2 4 0 0 4 3 174 164 162 
3 3 2 0 0 2 4 176 174 169 164 
4 1 4 0 0 2 3 169 166 165 
2 5 4 0 0 1 2 174 167 
9 5 2 0 0 1 3 170 168 337 
2 5 2 0 0 4 2 177 171 
2 2 2 0 0 2 2 177 171 
2 3 1 0 0 3 2 177 171 
1 2 1 0 0 2 1 171 
6 3 2 0 0 3 1 171 
9 2 2 0 0 4 1 171 
7 2 1 0 0 3 6 186 185 182 181 178 175 
1 4 3 0 0 1 6 186 185 182 181 178 175 
6 3 2 0 0 3 4 185 181 180 178 
4 4 3 0 0 2 2 185 175 
7 1 3 0 0 3 2 183 179 
5 2 1 0 0 2 1 177 
1 4 4 0 0 5 3 186 185 183 
9 1 2 0 0 3 2 184 183 
8 2 1 0 0 2 1 180 
8 2 4 0 0 1 1 184 
6 4 3 0 0 3 1 184 
5 1 4 0 0 1 1 183 
8 4 3 0 0 5 1 187 
10 1 2 0 0 2 1 187 
5 1 3 0 0 3 1 187 
4 2 2 0 0 3 1 187 
0 0 0 0 0 0 1 424 
0 0 0 0 0 0 6 189 190 191 192 194 218 
6 1 0 0 1 1 4 202 196 195 193 
7 2 0 0 3 2 5 217 208 200 197 196 
3 7 0 0 1 1 6 213 209 208 207 200 197 
6 3 0 0 2 3 5 208 207 202 200 197 
2 3 0 0 2 1 4 213 208 207 197 
7 4 0 0 1 4 5 216 212 203 202 199 
1 2 0 0 2 2 3 212 199 198 
7 4 0 0 2 1 5 213 212 207 206 203 
6 5 0 0 1 3 2 212 198 
7 4 0 0 1 2 3 215 206 203 
1 3 0 0 2 3 3 213 206 204 
4 3 0 0 2 4 2 214 201 
1 2 0 0 5 3 1 203 
2 1 0 0 3 2 2 213 205 
7 2 0 0 3 4 1 204 
10 3 0 0 2 1 1 205 
8 1 0 0 2 4 1 210 
8 2 0 0 3 2 1 211 
2 1 0 0 6 2 1 214 
10 1 0 0 1 2 1 214 
9 1 0 0 4 2 1 212 
4 2 0 0 4 3 1 219 
7 5 0 0 3 3 1 219 
9 2 0 0 2 4 1 219 
1 1 0 0 2 3 1 219 
6 2 0 0 5 3 1 219 
5 1 0 0 4 3 1 219 
8 3 0 0 2 4 1 219 
6 3 0 0 2 1 1 219 
8 1 0 0 2 2 1 219 
0 0 0 0 0 0 1 424 
0 0 0 0 0 0 6 221 222 223 224 227 250 
4 0 1 1 1 0 4 249 231 228 225 
5 0 4 3 2 0 4 234 232 231 225 
1 0 4 2 4 0 4 234 228 226 225 
3 0 3 3 3 0 3 237 231 225 
2 0 4 1 5 0 3 241 236 229 
9 0 4 2 3 0 4 246 245 232 230 
1 0 3 4 2 0 5 248 245 235 234 232 
10 0 2 4 2 0 5 245 244 241 240 235 
5 0 2 4 2 0 3 245 244 230 
6 0 2 4 4 0 3 247 240 235 
2 0 2 1 2 0 2 241 233 
4 0 3 1 1 0 3 244 240 238 
9 0 2 2 3 0 1 235 
9 0 4 3 2 0 2 244 239 
8 0 2 3 1 0 1 238 
7 0 4 2 3 0 2 246 243 
7 0 2 2 2 0 2 245 242 
6 0 1 4 3 0 1 239 
5 0 1 2 2 0 1 242 
4 0 1 3 2 0 1 243 
4 0 2 1 6 0 1 246 
10 0 1 3 2 0 1 251 
9 0 5 4 2 0 1 251 
7 0 4 3 1 0 1 251 
10 0 1 4 2 0 1 251 
6 0 1 3 2 0 1 251 
10 0 3 1 2 0 1 251 
2 0 2 2 4 0 1 251 
9 0 2 2 3 0 1 251 
2 0 3 1 2 0 1 251 
0 0 0 0 0 0 1 424 
0 0 0 0 0 0 4 253 255 256 262 
8 0 0 1 0 0 4 261 258 257 254 
7 0 0 4 0 0 2 260 259 
4 0 0 3 0 0 2 258 257 
2 0 0 2 0 0 1 257 
8 0 0 5 0 0 1 263 
6 0 0 2 0 0 1 263 
9 0 0 1 0 0 1 263 
2 0 0 2 0 0 1 263 
4 0 0 2 0 0 1 263 
4 0 0 3 0 0 1 263 
0 0 0 0 0 0 5 264 286 308 320 342 
0 0 0 0 0 0 5 265 266 267 268 270 
1 0 1 0 0 1 4 274 273 272 271 
9 0 1 0 0 2 3 275 271 269 
6 0 4 0 0 2 5 284 277 276 275 274 
1 0 3 0 0 1 2 277 269 
5 0 1 0 0 2 4 284 282 276 274 
7 0 1 0 0 1 4 284 278 277 276 
7 0 4 0 0 4 3 278 277 276 
4 0 3 0 0 5 3 278 277 276 
7 0 4 0 0 2 4 284 282 281 278 
2 0 2 0 0 1 3 281 279 278 
7 0 2 0 0 4 3 283 279 278 
9 0 2 0 0 3 3 283 281 280 
7 0 4 0 0 2 2 282 279 
2 0 3 0 0 3 1 280 
6 0 2 0 0 4 1 280 
4 0 2 0 0 2 1 285 
5 0 1 0 0 3 1 285 
9 0 3 0 0 5 1 285 
2 0 3 0 0 1 1 285 
8 0 4 0 0 2 1 285 
0 0 0 0 0 0 1 424 
0 0 0 0 0 0 6 287 288 289 290 291 292 
3 0 0 0 1 1 5 301 299 295 294 293 
3 0 0 0 1 5 5 305 299 297 296 295 
4 0 0 0 4 3 3 299 294 293 
9 0 0 0 3 2 3 299 297 293 
7 0 0 0 3 2 5 306 305 304 297 296 
10 0 0 0 2 1 2 299 293 
7 0 0 0 1 2 5 306 305 304 300 298 
2 0 0 0 2 3 3 305 304 297 
4 0 0 0 3 3 4 306 304 303 300 
6 0 0 0 2 1 2 300 298 
9 0 0 0 1 3 2 303 300 
5 0 0 0 4 1 2 303 302 
2 0 0 0 5 2 2 303 302 
10 0 0 0 1 4 1 302 
8 0 0 0 3 1 1 302 
6 0 0 0 3 3 1 307 
7 0 0 0 5 2 1 307 
7 0 0 0 2 2 1 307 
1 0 0 0 3 6 1 307 
7 0 0 0 1 3 1 307 
0 0 0 0 0 0 1 424 
0 0 0 0 0 0 7 309 310 311 312 313 317 318 
1 0 0 0 0 1 2 316 314 
10 0 0 0 0 2 2 316 315 
4 0 0 0 0 3 1 314 
2 0 0 0 0 2 1 314 
8 0 0 0 0 3 1 314 
8 0 0 0 0 6 1 315 
3 0 0 0 0 2 1 319 
7 0 0 0 0 4 1 319 
3 0 0 0 0 1 1 319 
9 0 0 0 0 1 1 319 
0 0 0 0 0 0 5 364 376 388 400 412 
0 0 0 0 0 0 5 321 322 324 325 326 
3 1 0 1 0 0 2 330 323 
9 2 0 6 0 0 2 329 327 
9 2 0 1 0 0 4 340 333 331 328 
3 1 0 2 0 0 4 340 332 331 330 
3 4 0 2 0 0 2 330 328 
3 2 0 1 0 0 5 340 338 334 333 332 
10 4 0 3 0 0 4 340 338 332 331 
5 2 0 4 0 0 4 338 337 334 332 
8 2 0 1 0 0 3 338 333 331 
2 2 0 2 0 0 3 338 334 333 
2 2 0 1 0 0 3 337 335 334 
5 2 0 3 0 0 3 339 336 335 
3 3 0 2 0 0 2 337 335 
8 4 0 3 0 0 1 336 
5 5 0 7 0 0 1 341 
9 3 0 2 0 0 1 341 
5 2 0 3 0 0 1 341 
9 5 0 1 0 0 1 341 
2 1 0 2 0 0 1 341 
10 1 0 3 0 0 1 341 
0 0 0 0 0 0 1 424 
0 0 0 0 0 0 4 343 344 345 347 
5 0 0 0 1 1 3 349 348 346 
7 0 0 0 2 3 3 356 349 348 
7 0 0 0 4 2 3 356 350 349 
1 0 0 0 1 2 5 362 356 352 351 350 
8 0 0 0 2 1 5 362 356 352 351 350 
9 0 0 0 5 3 4 362 352 351 350 
9 0 0 0 2 5 3 362 352 351 
4 0 0 0 2 4 4 357 355 354 353 
6 0 0 0 2 4 3 357 354 353 
4 0 0 0 3 3 4 361 360 357 355 
3 0 0 0 3 2 3 361 360 359 
2 0 0 0 4 3 3 360 359 358 
3 0 0 0 2 2 2 359 358 
3 0 0 0 4 3 2 359 358 
3 0 0 0 2 1 1 358 
7 0 0 0 2 3 1 363 
1 0 0 0 2 1 1 363 
2 0 0 0 2 2 1 363 
10 0 0 0 4 3 1 363 
9 0 0 0 1 2 1 363 
0 0 0 0 0 0 1 424 
0 0 0 0 0 0 4 365 366 368 369 
4 0 0 0 1 0 4 374 372 370 367 
1 0 0 0 4 0 3 372 371 370 
5 0 0 0 3 0 1 371 
9 0 0 0 3 0 1 373 
7 0 0 0 1 0 1 370 
4 0 0 0 2 0 1 375 
2 0 0 0 3 0 1 375 
6 0 0 0 2 0 1 375 
3 0 0 0 4 0 1 375 
9 0 0 0 2 0 1 375 
0 0 0 0 0 0 1 424 
0 0 0 0 0 0 2 377 378 
5 0 0 1 0 0 3 381 380 379 
8 0 0 3 0 0 3 381 380 379 
1 0 0 3 0 0 5 386 385 384 383 382 
5 0 0 3 0 0 5 386 385 384 383 382 
9 0 0 5 0 0 5 386 385 384 383 382 
8 0 0 2 0 0 1 387 
7 0 0 4 0 0 1 387 
8 0 0 1 0 0 1 387 
1 0 0 1 0 0 1 387 
2 0 0 2 0 0 1 387 
0 0 0 0 0 0 1 424 
0 0 0 0 0 0 4 389 390 391 392 
4 0 1 0 0 0 2 394 393 
5 0 2 0 0 0 2 394 393 
1 0 1 0 0 0 2 394 393 
1 0 2 0 0 0 2 394 393 
2 0 5 0 0 0 4 398 397 396 395 
8 0 2 0 0 0 4 398 397 396 395 
6 0 5 0 0 0 1 399 
4 0 3 0 0 0 1 399 
8 0 3 0 0 0 1 399 
10 0 1 0 0 0 1 399 
0 0 0 0 0 0 1 424 
0 0 0 0 0 0 4 401 402 403 405 
9 0 0 0 0 1 4 410 409 406 404 
1 0 0 0 0 3 2 406 404 
8 0 0 0 0 3 2 408 406 
5 0 0 0 0 3 1 407 
6 0 0 0 0 1 1 406 
7 0 0 0 0 3 1 411 
1 0 0 0 0 3 1 411 
10 0 0 0 0 3 1 411 
9 0 0 0 0 3 1 411 
10 0 0 0 0 2 1 411 
0 0 0 0 0 0 1 424 
0 0 0 0 0 0 5 413 414 415 416 419 
6 0 1 0 0 0 3 422 418 417 
3 0 1 0 0 0 3 422 418 417 
1 0 2 0 0 0 2 422 420 
1 0 3 0 0 0 2 421 420 
6 0 3 0 0 0 1 421 
1 0 4 0 0 0 1 420 
2 0 2 0 0 0 1 420 
3 0 4 0 0 0 1 423 
3 0 4 0 0 0 1 423 
9 0 1 0 0 0 1 423 
0 0 0 0 0 0 1 424 
0 0 0 0 0 0 0 
